\* Supply_Chain_Problem *\
Minimize
Objective_function: 20 Q_1_1 + 20 Q_1_2 + 20 Q_1_3 + 20 Q_1_4 + 20 Q_1_5
 + 20 Q_1_6 + 20 Q_1_7 + 20 Q_1_8 + 35 V_10_1_1 + 35 V_10_1_2 + 35 V_10_1_3
 + 35 V_10_1_4 + 35 V_10_1_5 + 35 V_10_1_6 + 35 V_10_1_7 + 35 V_10_1_8
 + 35 V_10_2_1 + 35 V_10_2_2 + 35 V_10_2_3 + 35 V_10_2_4 + 35 V_10_2_5
 + 35 V_10_2_6 + 35 V_10_2_7 + 35 V_10_2_8 + 35 V_10_3_1 + 35 V_10_3_2
 + 35 V_10_3_3 + 35 V_10_3_4 + 35 V_10_3_5 + 35 V_10_3_6 + 35 V_10_3_7
 + 35 V_10_3_8 + 35 V_1_1_1 + 35 V_1_1_2 + 35 V_1_1_3 + 35 V_1_1_4
 + 35 V_1_1_5 + 35 V_1_1_6 + 35 V_1_1_7 + 35 V_1_1_8 + 35 V_1_2_1 + 35 V_1_2_2
 + 35 V_1_2_3 + 35 V_1_2_4 + 35 V_1_2_5 + 35 V_1_2_6 + 35 V_1_2_7 + 35 V_1_2_8
 + 35 V_1_3_1 + 35 V_1_3_2 + 35 V_1_3_3 + 35 V_1_3_4 + 35 V_1_3_5 + 35 V_1_3_6
 + 35 V_1_3_7 + 35 V_1_3_8 + 35 V_2_1_1 + 35 V_2_1_2 + 35 V_2_1_3 + 35 V_2_1_4
 + 35 V_2_1_5 + 35 V_2_1_6 + 35 V_2_1_7 + 35 V_2_1_8 + 35 V_2_2_1 + 35 V_2_2_2
 + 35 V_2_2_3 + 35 V_2_2_4 + 35 V_2_2_5 + 35 V_2_2_6 + 35 V_2_2_7 + 35 V_2_2_8
 + 35 V_2_3_1 + 35 V_2_3_2 + 35 V_2_3_3 + 35 V_2_3_4 + 35 V_2_3_5 + 35 V_2_3_6
 + 35 V_2_3_7 + 35 V_2_3_8 + 35 V_3_1_1 + 35 V_3_1_2 + 35 V_3_1_3 + 35 V_3_1_4
 + 35 V_3_1_5 + 35 V_3_1_6 + 35 V_3_1_7 + 35 V_3_1_8 + 35 V_3_2_1 + 35 V_3_2_2
 + 35 V_3_2_3 + 35 V_3_2_4 + 35 V_3_2_5 + 35 V_3_2_6 + 35 V_3_2_7 + 35 V_3_2_8
 + 35 V_3_3_1 + 35 V_3_3_2 + 35 V_3_3_3 + 35 V_3_3_4 + 35 V_3_3_5 + 35 V_3_3_6
 + 35 V_3_3_7 + 35 V_3_3_8 + 35 V_4_1_1 + 35 V_4_1_2 + 35 V_4_1_3 + 35 V_4_1_4
 + 35 V_4_1_5 + 35 V_4_1_6 + 35 V_4_1_7 + 35 V_4_1_8 + 35 V_4_2_1 + 35 V_4_2_2
 + 35 V_4_2_3 + 35 V_4_2_4 + 35 V_4_2_5 + 35 V_4_2_6 + 35 V_4_2_7 + 35 V_4_2_8
 + 35 V_4_3_1 + 35 V_4_3_2 + 35 V_4_3_3 + 35 V_4_3_4 + 35 V_4_3_5 + 35 V_4_3_6
 + 35 V_4_3_7 + 35 V_4_3_8 + 35 V_5_1_1 + 35 V_5_1_2 + 35 V_5_1_3 + 35 V_5_1_4
 + 35 V_5_1_5 + 35 V_5_1_6 + 35 V_5_1_7 + 35 V_5_1_8 + 35 V_5_2_1 + 35 V_5_2_2
 + 35 V_5_2_3 + 35 V_5_2_4 + 35 V_5_2_5 + 35 V_5_2_6 + 35 V_5_2_7 + 35 V_5_2_8
 + 35 V_5_3_1 + 35 V_5_3_2 + 35 V_5_3_3 + 35 V_5_3_4 + 35 V_5_3_5 + 35 V_5_3_6
 + 35 V_5_3_7 + 35 V_5_3_8 + 35 V_6_1_1 + 35 V_6_1_2 + 35 V_6_1_3 + 35 V_6_1_4
 + 35 V_6_1_5 + 35 V_6_1_6 + 35 V_6_1_7 + 35 V_6_1_8 + 35 V_6_2_1 + 35 V_6_2_2
 + 35 V_6_2_3 + 35 V_6_2_4 + 35 V_6_2_5 + 35 V_6_2_6 + 35 V_6_2_7 + 35 V_6_2_8
 + 35 V_6_3_1 + 35 V_6_3_2 + 35 V_6_3_3 + 35 V_6_3_4 + 35 V_6_3_5 + 35 V_6_3_6
 + 35 V_6_3_7 + 35 V_6_3_8 + 35 V_7_1_1 + 35 V_7_1_2 + 35 V_7_1_3 + 35 V_7_1_4
 + 35 V_7_1_5 + 35 V_7_1_6 + 35 V_7_1_7 + 35 V_7_1_8 + 35 V_7_2_1 + 35 V_7_2_2
 + 35 V_7_2_3 + 35 V_7_2_4 + 35 V_7_2_5 + 35 V_7_2_6 + 35 V_7_2_7 + 35 V_7_2_8
 + 35 V_7_3_1 + 35 V_7_3_2 + 35 V_7_3_3 + 35 V_7_3_4 + 35 V_7_3_5 + 35 V_7_3_6
 + 35 V_7_3_7 + 35 V_7_3_8 + 35 V_8_1_1 + 35 V_8_1_2 + 35 V_8_1_3 + 35 V_8_1_4
 + 35 V_8_1_5 + 35 V_8_1_6 + 35 V_8_1_7 + 35 V_8_1_8 + 35 V_8_2_1 + 35 V_8_2_2
 + 35 V_8_2_3 + 35 V_8_2_4 + 35 V_8_2_5 + 35 V_8_2_6 + 35 V_8_2_7 + 35 V_8_2_8
 + 35 V_8_3_1 + 35 V_8_3_2 + 35 V_8_3_3 + 35 V_8_3_4 + 35 V_8_3_5 + 35 V_8_3_6
 + 35 V_8_3_7 + 35 V_8_3_8 + 35 V_9_1_1 + 35 V_9_1_2 + 35 V_9_1_3 + 35 V_9_1_4
 + 35 V_9_1_5 + 35 V_9_1_6 + 35 V_9_1_7 + 35 V_9_1_8 + 35 V_9_2_1 + 35 V_9_2_2
 + 35 V_9_2_3 + 35 V_9_2_4 + 35 V_9_2_5 + 35 V_9_2_6 + 35 V_9_2_7 + 35 V_9_2_8
 + 35 V_9_3_1 + 35 V_9_3_2 + 35 V_9_3_3 + 35 V_9_3_4 + 35 V_9_3_5 + 35 V_9_3_6
 + 35 V_9_3_7 + 35 V_9_3_8 + 3 W_0 + 2 W_1 + 2 W_2 + 2 W_3 + 2 W_4 + 2 W_5
 + 2 W_6 + 2 W_7 + 2 W_8 + 7 X_1_0_0 + Y_1_1_0 + Y_1_2_0 + Y_1_3_0 + Y_1_4_0
 + Y_1_5_0 + Y_1_6_0 + Y_1_7_0 + Y_1_8_0
Subject To
_C1: X_1_0_0 >= 300
_C10: - Q_1_8 + Y_1_8_0 <= 0
_C11: 350 Q_1_1 - 500 W_1 <= 0
_C12: 350 Q_1_2 - 500 W_2 <= 0
_C13: 350 Q_1_3 - 500 W_3 <= 0
_C14: 350 Q_1_4 - 500 W_4 <= 0
_C15: 350 Q_1_5 - 500 W_5 <= 0
_C16: 350 Q_1_6 - 500 W_6 <= 0
_C17: 350 Q_1_7 - 500 W_7 <= 0
_C18: 350 Q_1_8 - 500 W_8 <= 0
_C19: 400 Q_1_1 - V_1_1_1 - V_1_2_1 - V_1_3_1 <= 0
_C2: X_1_0_0 - Y_1_1_0 - Y_1_2_0 - Y_1_3_0 - Y_1_4_0 - Y_1_5_0 - Y_1_6_0
 - Y_1_7_0 - Y_1_8_0 <= 0
_C20: 400 Q_1_2 - V_1_1_2 - V_1_2_2 - V_1_3_2 <= 0
_C21: 400 Q_1_3 - V_1_1_3 - V_1_2_3 - V_1_3_3 <= 0
_C22: 400 Q_1_4 - V_1_1_4 - V_1_2_4 - V_1_3_4 <= 0
_C23: 400 Q_1_5 - V_1_1_5 - V_1_2_5 - V_1_3_5 <= 0
_C24: 400 Q_1_6 - V_1_1_6 - V_1_2_6 - V_1_3_6 <= 0
_C25: 400 Q_1_7 - V_1_1_7 - V_1_2_7 - V_1_3_7 <= 0
_C26: 400 Q_1_8 - V_1_1_8 - V_1_2_8 - V_1_3_8 <= 0
_C27: 400 Q_1_1 - V_2_1_1 - V_2_2_1 - V_2_3_1 <= 0
_C28: 400 Q_1_2 - V_2_1_2 - V_2_2_2 - V_2_3_2 <= 0
_C29: 400 Q_1_3 - V_2_1_3 - V_2_2_3 - V_2_3_3 <= 0
_C3: - Q_1_1 + Y_1_1_0 <= 0
_C30: 400 Q_1_4 - V_2_1_4 - V_2_2_4 - V_2_3_4 <= 0
_C31: 400 Q_1_5 - V_2_1_5 - V_2_2_5 - V_2_3_5 <= 0
_C32: 400 Q_1_6 - V_2_1_6 - V_2_2_6 - V_2_3_6 <= 0
_C33: 400 Q_1_7 - V_2_1_7 - V_2_2_7 - V_2_3_7 <= 0
_C34: 400 Q_1_8 - V_2_1_8 - V_2_2_8 - V_2_3_8 <= 0
_C35: 400 Q_1_1 - V_3_1_1 - V_3_2_1 - V_3_3_1 <= 0
_C36: 400 Q_1_2 - V_3_1_2 - V_3_2_2 - V_3_3_2 <= 0
_C37: 400 Q_1_3 - V_3_1_3 - V_3_2_3 - V_3_3_3 <= 0
_C38: 400 Q_1_4 - V_3_1_4 - V_3_2_4 - V_3_3_4 <= 0
_C39: 400 Q_1_5 - V_3_1_5 - V_3_2_5 - V_3_3_5 <= 0
_C4: - Q_1_2 + Y_1_2_0 <= 0
_C40: 400 Q_1_6 - V_3_1_6 - V_3_2_6 - V_3_3_6 <= 0
_C41: 400 Q_1_7 - V_3_1_7 - V_3_2_7 - V_3_3_7 <= 0
_C42: 400 Q_1_8 - V_3_1_8 - V_3_2_8 - V_3_3_8 <= 0
_C43: 400 Q_1_1 - V_4_1_1 - V_4_2_1 - V_4_3_1 <= 0
_C44: 400 Q_1_2 - V_4_1_2 - V_4_2_2 - V_4_3_2 <= 0
_C45: 400 Q_1_3 - V_4_1_3 - V_4_2_3 - V_4_3_3 <= 0
_C46: 400 Q_1_4 - V_4_1_4 - V_4_2_4 - V_4_3_4 <= 0
_C47: 400 Q_1_5 - V_4_1_5 - V_4_2_5 - V_4_3_5 <= 0
_C48: 400 Q_1_6 - V_4_1_6 - V_4_2_6 - V_4_3_6 <= 0
_C49: 400 Q_1_7 - V_4_1_7 - V_4_2_7 - V_4_3_7 <= 0
_C5: - Q_1_3 + Y_1_3_0 <= 0
_C50: 400 Q_1_8 - V_4_1_8 - V_4_2_8 - V_4_3_8 <= 0
_C51: 400 Q_1_1 - V_5_1_1 - V_5_2_1 - V_5_3_1 <= 0
_C52: 400 Q_1_2 - V_5_1_2 - V_5_2_2 - V_5_3_2 <= 0
_C53: 400 Q_1_3 - V_5_1_3 - V_5_2_3 - V_5_3_3 <= 0
_C54: 400 Q_1_4 - V_5_1_4 - V_5_2_4 - V_5_3_4 <= 0
_C55: 400 Q_1_5 - V_5_1_5 - V_5_2_5 - V_5_3_5 <= 0
_C56: 400 Q_1_6 - V_5_1_6 - V_5_2_6 - V_5_3_6 <= 0
_C57: 400 Q_1_7 - V_5_1_7 - V_5_2_7 - V_5_3_7 <= 0
_C58: 400 Q_1_8 - V_5_1_8 - V_5_2_8 - V_5_3_8 <= 0
_C59: 400 Q_1_1 - V_6_1_1 - V_6_2_1 - V_6_3_1 <= 0
_C6: - Q_1_4 + Y_1_4_0 <= 0
_C60: 400 Q_1_2 - V_6_1_2 - V_6_2_2 - V_6_3_2 <= 0
_C61: 400 Q_1_3 - V_6_1_3 - V_6_2_3 - V_6_3_3 <= 0
_C62: 400 Q_1_4 - V_6_1_4 - V_6_2_4 - V_6_3_4 <= 0
_C63: 400 Q_1_5 - V_6_1_5 - V_6_2_5 - V_6_3_5 <= 0
_C64: 400 Q_1_6 - V_6_1_6 - V_6_2_6 - V_6_3_6 <= 0
_C65: 400 Q_1_7 - V_6_1_7 - V_6_2_7 - V_6_3_7 <= 0
_C66: 400 Q_1_8 - V_6_1_8 - V_6_2_8 - V_6_3_8 <= 0
_C67: 400 Q_1_1 - V_7_1_1 - V_7_2_1 - V_7_3_1 <= 0
_C68: 400 Q_1_2 - V_7_1_2 - V_7_2_2 - V_7_3_2 <= 0
_C69: 400 Q_1_3 - V_7_1_3 - V_7_2_3 - V_7_3_3 <= 0
_C7: - Q_1_5 + Y_1_5_0 <= 0
_C70: 400 Q_1_4 - V_7_1_4 - V_7_2_4 - V_7_3_4 <= 0
_C71: 400 Q_1_5 - V_7_1_5 - V_7_2_5 - V_7_3_5 <= 0
_C72: 400 Q_1_6 - V_7_1_6 - V_7_2_6 - V_7_3_6 <= 0
_C73: 400 Q_1_7 - V_7_1_7 - V_7_2_7 - V_7_3_7 <= 0
_C74: 400 Q_1_8 - V_7_1_8 - V_7_2_8 - V_7_3_8 <= 0
_C75: 400 Q_1_1 - V_8_1_1 - V_8_2_1 - V_8_3_1 <= 0
_C76: 400 Q_1_2 - V_8_1_2 - V_8_2_2 - V_8_3_2 <= 0
_C77: 400 Q_1_3 - V_8_1_3 - V_8_2_3 - V_8_3_3 <= 0
_C78: 400 Q_1_4 - V_8_1_4 - V_8_2_4 - V_8_3_4 <= 0
_C79: 400 Q_1_5 - V_8_1_5 - V_8_2_5 - V_8_3_5 <= 0
_C8: - Q_1_6 + Y_1_6_0 <= 0
_C80: 400 Q_1_6 - V_8_1_6 - V_8_2_6 - V_8_3_6 <= 0
_C81: 400 Q_1_7 - V_8_1_7 - V_8_2_7 - V_8_3_7 <= 0
_C82: 400 Q_1_8 - V_8_1_8 - V_8_2_8 - V_8_3_8 <= 0
_C83: 400 Q_1_1 - V_9_1_1 - V_9_2_1 - V_9_3_1 <= 0
_C84: 400 Q_1_2 - V_9_1_2 - V_9_2_2 - V_9_3_2 <= 0
_C85: 400 Q_1_3 - V_9_1_3 - V_9_2_3 - V_9_3_3 <= 0
_C86: 400 Q_1_4 - V_9_1_4 - V_9_2_4 - V_9_3_4 <= 0
_C87: 400 Q_1_5 - V_9_1_5 - V_9_2_5 - V_9_3_5 <= 0
_C88: 400 Q_1_6 - V_9_1_6 - V_9_2_6 - V_9_3_6 <= 0
_C89: 400 Q_1_7 - V_9_1_7 - V_9_2_7 - V_9_3_7 <= 0
_C9: - Q_1_7 + Y_1_7_0 <= 0
_C90: 400 Q_1_8 - V_9_1_8 - V_9_2_8 - V_9_3_8 <= 0
_C91: 400 Q_1_1 - V_10_1_1 - V_10_2_1 - V_10_3_1 <= 0
_C92: 400 Q_1_2 - V_10_1_2 - V_10_2_2 - V_10_3_2 <= 0
_C93: 400 Q_1_3 - V_10_1_3 - V_10_2_3 - V_10_3_3 <= 0
_C94: 400 Q_1_4 - V_10_1_4 - V_10_2_4 - V_10_3_4 <= 0
_C95: 400 Q_1_5 - V_10_1_5 - V_10_2_5 - V_10_3_5 <= 0
_C96: 400 Q_1_6 - V_10_1_6 - V_10_2_6 - V_10_3_6 <= 0
_C97: 400 Q_1_7 - V_10_1_7 - V_10_2_7 - V_10_3_7 <= 0
_C98: 400 Q_1_8 - V_10_1_8 - V_10_2_8 - V_10_3_8 <= 0
_C99: - 1000 U_0 + X_1_0_0 <= 0
Bounds
0 <= Q_1_1
0 <= Q_1_2
0 <= Q_1_3
0 <= Q_1_4
0 <= Q_1_5
0 <= Q_1_6
0 <= Q_1_7
0 <= Q_1_8
0 <= V_10_1_1
0 <= V_10_1_2
0 <= V_10_1_3
0 <= V_10_1_4
0 <= V_10_1_5
0 <= V_10_1_6
0 <= V_10_1_7
0 <= V_10_1_8
0 <= V_10_2_1
0 <= V_10_2_2
0 <= V_10_2_3
0 <= V_10_2_4
0 <= V_10_2_5
0 <= V_10_2_6
0 <= V_10_2_7
0 <= V_10_2_8
0 <= V_10_3_1
0 <= V_10_3_2
0 <= V_10_3_3
0 <= V_10_3_4
0 <= V_10_3_5
0 <= V_10_3_6
0 <= V_10_3_7
0 <= V_10_3_8
0 <= V_1_1_1
0 <= V_1_1_2
0 <= V_1_1_3
0 <= V_1_1_4
0 <= V_1_1_5
0 <= V_1_1_6
0 <= V_1_1_7
0 <= V_1_1_8
0 <= V_1_2_1
0 <= V_1_2_2
0 <= V_1_2_3
0 <= V_1_2_4
0 <= V_1_2_5
0 <= V_1_2_6
0 <= V_1_2_7
0 <= V_1_2_8
0 <= V_1_3_1
0 <= V_1_3_2
0 <= V_1_3_3
0 <= V_1_3_4
0 <= V_1_3_5
0 <= V_1_3_6
0 <= V_1_3_7
0 <= V_1_3_8
0 <= V_2_1_1
0 <= V_2_1_2
0 <= V_2_1_3
0 <= V_2_1_4
0 <= V_2_1_5
0 <= V_2_1_6
0 <= V_2_1_7
0 <= V_2_1_8
0 <= V_2_2_1
0 <= V_2_2_2
0 <= V_2_2_3
0 <= V_2_2_4
0 <= V_2_2_5
0 <= V_2_2_6
0 <= V_2_2_7
0 <= V_2_2_8
0 <= V_2_3_1
0 <= V_2_3_2
0 <= V_2_3_3
0 <= V_2_3_4
0 <= V_2_3_5
0 <= V_2_3_6
0 <= V_2_3_7
0 <= V_2_3_8
0 <= V_3_1_1
0 <= V_3_1_2
0 <= V_3_1_3
0 <= V_3_1_4
0 <= V_3_1_5
0 <= V_3_1_6
0 <= V_3_1_7
0 <= V_3_1_8
0 <= V_3_2_1
0 <= V_3_2_2
0 <= V_3_2_3
0 <= V_3_2_4
0 <= V_3_2_5
0 <= V_3_2_6
0 <= V_3_2_7
0 <= V_3_2_8
0 <= V_3_3_1
0 <= V_3_3_2
0 <= V_3_3_3
0 <= V_3_3_4
0 <= V_3_3_5
0 <= V_3_3_6
0 <= V_3_3_7
0 <= V_3_3_8
0 <= V_4_1_1
0 <= V_4_1_2
0 <= V_4_1_3
0 <= V_4_1_4
0 <= V_4_1_5
0 <= V_4_1_6
0 <= V_4_1_7
0 <= V_4_1_8
0 <= V_4_2_1
0 <= V_4_2_2
0 <= V_4_2_3
0 <= V_4_2_4
0 <= V_4_2_5
0 <= V_4_2_6
0 <= V_4_2_7
0 <= V_4_2_8
0 <= V_4_3_1
0 <= V_4_3_2
0 <= V_4_3_3
0 <= V_4_3_4
0 <= V_4_3_5
0 <= V_4_3_6
0 <= V_4_3_7
0 <= V_4_3_8
0 <= V_5_1_1
0 <= V_5_1_2
0 <= V_5_1_3
0 <= V_5_1_4
0 <= V_5_1_5
0 <= V_5_1_6
0 <= V_5_1_7
0 <= V_5_1_8
0 <= V_5_2_1
0 <= V_5_2_2
0 <= V_5_2_3
0 <= V_5_2_4
0 <= V_5_2_5
0 <= V_5_2_6
0 <= V_5_2_7
0 <= V_5_2_8
0 <= V_5_3_1
0 <= V_5_3_2
0 <= V_5_3_3
0 <= V_5_3_4
0 <= V_5_3_5
0 <= V_5_3_6
0 <= V_5_3_7
0 <= V_5_3_8
0 <= V_6_1_1
0 <= V_6_1_2
0 <= V_6_1_3
0 <= V_6_1_4
0 <= V_6_1_5
0 <= V_6_1_6
0 <= V_6_1_7
0 <= V_6_1_8
0 <= V_6_2_1
0 <= V_6_2_2
0 <= V_6_2_3
0 <= V_6_2_4
0 <= V_6_2_5
0 <= V_6_2_6
0 <= V_6_2_7
0 <= V_6_2_8
0 <= V_6_3_1
0 <= V_6_3_2
0 <= V_6_3_3
0 <= V_6_3_4
0 <= V_6_3_5
0 <= V_6_3_6
0 <= V_6_3_7
0 <= V_6_3_8
0 <= V_7_1_1
0 <= V_7_1_2
0 <= V_7_1_3
0 <= V_7_1_4
0 <= V_7_1_5
0 <= V_7_1_6
0 <= V_7_1_7
0 <= V_7_1_8
0 <= V_7_2_1
0 <= V_7_2_2
0 <= V_7_2_3
0 <= V_7_2_4
0 <= V_7_2_5
0 <= V_7_2_6
0 <= V_7_2_7
0 <= V_7_2_8
0 <= V_7_3_1
0 <= V_7_3_2
0 <= V_7_3_3
0 <= V_7_3_4
0 <= V_7_3_5
0 <= V_7_3_6
0 <= V_7_3_7
0 <= V_7_3_8
0 <= V_8_1_1
0 <= V_8_1_2
0 <= V_8_1_3
0 <= V_8_1_4
0 <= V_8_1_5
0 <= V_8_1_6
0 <= V_8_1_7
0 <= V_8_1_8
0 <= V_8_2_1
0 <= V_8_2_2
0 <= V_8_2_3
0 <= V_8_2_4
0 <= V_8_2_5
0 <= V_8_2_6
0 <= V_8_2_7
0 <= V_8_2_8
0 <= V_8_3_1
0 <= V_8_3_2
0 <= V_8_3_3
0 <= V_8_3_4
0 <= V_8_3_5
0 <= V_8_3_6
0 <= V_8_3_7
0 <= V_8_3_8
0 <= V_9_1_1
0 <= V_9_1_2
0 <= V_9_1_3
0 <= V_9_1_4
0 <= V_9_1_5
0 <= V_9_1_6
0 <= V_9_1_7
0 <= V_9_1_8
0 <= V_9_2_1
0 <= V_9_2_2
0 <= V_9_2_3
0 <= V_9_2_4
0 <= V_9_2_5
0 <= V_9_2_6
0 <= V_9_2_7
0 <= V_9_2_8
0 <= V_9_3_1
0 <= V_9_3_2
0 <= V_9_3_3
0 <= V_9_3_4
0 <= V_9_3_5
0 <= V_9_3_6
0 <= V_9_3_7
0 <= V_9_3_8
0 <= W_0
0 <= W_1
0 <= W_2
0 <= W_3
0 <= W_4
0 <= W_5
0 <= W_6
0 <= W_7
0 <= W_8
0 <= X_1_0_0
0 <= Y_1_1_0
0 <= Y_1_2_0
0 <= Y_1_3_0
0 <= Y_1_4_0
0 <= Y_1_5_0
0 <= Y_1_6_0
0 <= Y_1_7_0
0 <= Y_1_8_0
Generals
Q_1_1
Q_1_2
Q_1_3
Q_1_4
Q_1_5
Q_1_6
Q_1_7
Q_1_8
V_10_1_1
V_10_1_2
V_10_1_3
V_10_1_4
V_10_1_5
V_10_1_6
V_10_1_7
V_10_1_8
V_10_2_1
V_10_2_2
V_10_2_3
V_10_2_4
V_10_2_5
V_10_2_6
V_10_2_7
V_10_2_8
V_10_3_1
V_10_3_2
V_10_3_3
V_10_3_4
V_10_3_5
V_10_3_6
V_10_3_7
V_10_3_8
V_1_1_1
V_1_1_2
V_1_1_3
V_1_1_4
V_1_1_5
V_1_1_6
V_1_1_7
V_1_1_8
V_1_2_1
V_1_2_2
V_1_2_3
V_1_2_4
V_1_2_5
V_1_2_6
V_1_2_7
V_1_2_8
V_1_3_1
V_1_3_2
V_1_3_3
V_1_3_4
V_1_3_5
V_1_3_6
V_1_3_7
V_1_3_8
V_2_1_1
V_2_1_2
V_2_1_3
V_2_1_4
V_2_1_5
V_2_1_6
V_2_1_7
V_2_1_8
V_2_2_1
V_2_2_2
V_2_2_3
V_2_2_4
V_2_2_5
V_2_2_6
V_2_2_7
V_2_2_8
V_2_3_1
V_2_3_2
V_2_3_3
V_2_3_4
V_2_3_5
V_2_3_6
V_2_3_7
V_2_3_8
V_3_1_1
V_3_1_2
V_3_1_3
V_3_1_4
V_3_1_5
V_3_1_6
V_3_1_7
V_3_1_8
V_3_2_1
V_3_2_2
V_3_2_3
V_3_2_4
V_3_2_5
V_3_2_6
V_3_2_7
V_3_2_8
V_3_3_1
V_3_3_2
V_3_3_3
V_3_3_4
V_3_3_5
V_3_3_6
V_3_3_7
V_3_3_8
V_4_1_1
V_4_1_2
V_4_1_3
V_4_1_4
V_4_1_5
V_4_1_6
V_4_1_7
V_4_1_8
V_4_2_1
V_4_2_2
V_4_2_3
V_4_2_4
V_4_2_5
V_4_2_6
V_4_2_7
V_4_2_8
V_4_3_1
V_4_3_2
V_4_3_3
V_4_3_4
V_4_3_5
V_4_3_6
V_4_3_7
V_4_3_8
V_5_1_1
V_5_1_2
V_5_1_3
V_5_1_4
V_5_1_5
V_5_1_6
V_5_1_7
V_5_1_8
V_5_2_1
V_5_2_2
V_5_2_3
V_5_2_4
V_5_2_5
V_5_2_6
V_5_2_7
V_5_2_8
V_5_3_1
V_5_3_2
V_5_3_3
V_5_3_4
V_5_3_5
V_5_3_6
V_5_3_7
V_5_3_8
V_6_1_1
V_6_1_2
V_6_1_3
V_6_1_4
V_6_1_5
V_6_1_6
V_6_1_7
V_6_1_8
V_6_2_1
V_6_2_2
V_6_2_3
V_6_2_4
V_6_2_5
V_6_2_6
V_6_2_7
V_6_2_8
V_6_3_1
V_6_3_2
V_6_3_3
V_6_3_4
V_6_3_5
V_6_3_6
V_6_3_7
V_6_3_8
V_7_1_1
V_7_1_2
V_7_1_3
V_7_1_4
V_7_1_5
V_7_1_6
V_7_1_7
V_7_1_8
V_7_2_1
V_7_2_2
V_7_2_3
V_7_2_4
V_7_2_5
V_7_2_6
V_7_2_7
V_7_2_8
V_7_3_1
V_7_3_2
V_7_3_3
V_7_3_4
V_7_3_5
V_7_3_6
V_7_3_7
V_7_3_8
V_8_1_1
V_8_1_2
V_8_1_3
V_8_1_4
V_8_1_5
V_8_1_6
V_8_1_7
V_8_1_8
V_8_2_1
V_8_2_2
V_8_2_3
V_8_2_4
V_8_2_5
V_8_2_6
V_8_2_7
V_8_2_8
V_8_3_1
V_8_3_2
V_8_3_3
V_8_3_4
V_8_3_5
V_8_3_6
V_8_3_7
V_8_3_8
V_9_1_1
V_9_1_2
V_9_1_3
V_9_1_4
V_9_1_5
V_9_1_6
V_9_1_7
V_9_1_8
V_9_2_1
V_9_2_2
V_9_2_3
V_9_2_4
V_9_2_5
V_9_2_6
V_9_2_7
V_9_2_8
V_9_3_1
V_9_3_2
V_9_3_3
V_9_3_4
V_9_3_5
V_9_3_6
V_9_3_7
V_9_3_8
W_0
W_1
W_2
W_3
W_4
W_5
W_6
W_7
W_8
X_1_0_0
Y_1_1_0
Y_1_2_0
Y_1_3_0
Y_1_4_0
Y_1_5_0
Y_1_6_0
Y_1_7_0
Y_1_8_0
Binaries
U_0
End
